
;this file is automatically generated: Wed Feb 26 14:38:42 CST 2020

;declarations generated

(declare-fun oclExcludes ( Int Int) Bool)
(declare-fun Cardinality ( Int) Int)
(declare-fun class13_Class13BoolAttr1 ( Int) Bool)
(declare-fun class13_Class13BoolAttr0 ( Int) Bool)
(declare-fun oclSelect ( Int Bool) Int)
(declare-fun obj_8df84eca_5828_411a_8d6b_ebf629b60e71 ( Int) Int)
(declare-fun Enum0 ( Int) Int)
(declare-fun Enum1 ( Int) Int)
(declare-fun container_ ( Int) Int)
(declare-fun type_181b7806_91e1_4f4d_af2c_4a5b6f5bf3a8_Class13 ( Int) Bool)
(declare-fun oclIncludes ( Int Int) Bool)
(declare-fun ObjAt ( Int Int) Int)

;formula(s) generated
(assert (! (or (forall ((v Int)) (=> ( type_181b7806_91e1_4f4d_af2c_4a5b6f5bf3a8_Class13 v )  ( class13_Class13BoolAttr0 ( obj_8df84eca_5828_411a_8d6b_ebf629b60e71 v )  ) )) (forall ((v Int)) (=> ( type_181b7806_91e1_4f4d_af2c_4a5b6f5bf3a8_Class13 v )  ( class13_Class13BoolAttr1 ( obj_8df84eca_5828_411a_8d6b_ebf629b60e71 v )  ) ))):named l0))
(assert (exists ((o Int)) ( type_181b7806_91e1_4f4d_af2c_4a5b6f5bf3a8_Class13 ( obj_8df84eca_5828_411a_8d6b_ebf629b60e71 o )  ) ))

 ;end of formula 